61
197
78
29
296
155
135
181
209
270
42
199
120
182
177
189
135
121
288
244
133
255
295
140
187
257
72
272
30
135
221
64
99
231
134
199
114
7
68
261
90
283
270
289
175
171
186
20
241
112
8
165
122
135
290
6
182
293
220
44
112
286
91
232
241
136
191
16
128
87
201
7
208
177
57
231
204
106
85
228
223
109
149
108
274
196
63
183
147
295
249
124
16
8
71
199
247
193
55
277
